# Solution for model GasLib-40
# Objective value = 1.1598386167835258e+01
loadshed[innode_1] 0
loadshed[innode_2] 0
loadshed[innode_3] 0
loadshed[innode_4] 0
loadshed[innode_5] 0
loadshed[innode_6] 0
loadshed[innode_7] 0
loadshed[innode_8] 0
loadshed[source_1] -1.9326794447356566e-01
loadshed[source_2] -2.4911786533393210e-02
loadshed[source_3] 2.9154531889044566e-01
loadshed[sink_1] 0
loadshed[sink_2] 0
loadshed[sink_3] 0
loadshed[sink_4] 0
loadshed[sink_5] 0
loadshed[sink_6] 0
loadshed[sink_7] 0
loadshed[sink_8] 0
loadshed[sink_9] 0
loadshed[sink_10] 0
loadshed[sink_11] 0
loadshed[sink_12] 0.709200682874003
loadshed[sink_13] 0
loadshed[sink_14] 0
loadshed[sink_15] 0
loadshed[sink_16] 0
loadshed[sink_17] 0
loadshed[sink_18] 0
loadshed[sink_19] 0
loadshed[sink_20] 0
loadshed[sink_21] 0
loadshed[sink_22] 0
loadshed[sink_23] 0
loadshed[sink_24] 0
loadshed[sink_25] 0
loadshed[sink_26] 0
loadshed[sink_27] 0
loadshed[sink_28] 0
loadshed[sink_29] 0
flow[source_1,sink_3] 1.8864406080514391e+02
flow[innode_1,sink_16] 1.6354166666666970e+01
flow[innode_6,sink_13] 2.4793693370908585e+00
flow[sink_13,sink_14] -1.3874797329575809e+01
flow[sink_14,sink_10] -3.0228963996242477e+01
flow[sink_25,sink_26] 1.7915684044629427e+02
flow[sink_26,sink_9] 135.589113832165
flow[sink_9,sink_18] 1.1923494716549833e+02
flow[sink_26,sink_4] 2.7213559947463352e+01
flow[sink_4,sink_20] 0
flow[sink_18,sink_6] 1.0288078049883165e+02
flow[sink_25,innode_8] -1.5593572747180755e+02
flow[sink_6,sink_7] 5.3818280498831413e+01
flow[sink_6,sink_22] 3.2708333333333641e+01
flow[sink_7,sink_24] 3.7464113832164742e+01
flow[sink_22,sink_1] 1.6354166666666970e+01
flow[sink_24,sink_21] 2.1109947165498077e+01
flow[sink_21,sink_12] 4.75578049883141
flow[sink_7,sink_5] 0
flow[sink_5,sink_17] -1.6354166666667197e+01
flow[sink_17,sink_4] -1.0859393280796667e+01
flow[sink_17,sink_8] -2.1848940052537120e+01
flow[sink_3,sink_23] 16.3541666666697
flow[sink_8,sink_20] -3.8203106719203788e+01
flow[sink_25,sink_20] 5.4557273385870531e+01
flow[sink_25,sink_15] -9.6611922364114719e+01
flow[sink_15,sink_29] -6.2954928858869678e+01
flow[sink_29,sink_28] 1.6354166666667879e+01
flow[sink_29,sink_2] 6.6365326838578383e+01
flow[sink_2,sink_15] 5.0011160171911712e+01
flow[sink_29,innode_7] -1.6202858903078260e+02
flow[innode_4,sink_19] 0
flow[sink_19,innode_3] 38.6938997410784
flow[innode_4,innode_5] 1.1199979732957642e+02
flow[sink_27,innode_5] -1.1199979732957642e+02
flow[sink_27,sink_19] 9.5645630662909753e+01
flow[sink_10,sink_11] 3.2708333333333641e+01
flow[sink_10,innode_2] -4.0597564255164386e+01
flow[sink_10,innode_3] -38.6938997410784
flow[innode_6,sink_25] -2.4793693370908585e+00
flow[sink_11,innode_1] 1.6354166666666970e+01
flow[sink_19,innode_2] 4.0597564255164386e+01
flow[source_3,innode_4] 1.1199979732957642e+02
flow[source_2,innode_7] 1.6202858903078260e+02
flow[sink_3,innode_8] 1.5593572747180755e+02
pressure[innode_1] 7.5655822009566066e+01
pressure[innode_2] 7.7953272261486873e+01
pressure[innode_3] 7.7867589002119075e+01
pressure[innode_4] 81.01325
pressure[innode_5] 8.0936210633629116e+01
pressure[innode_6] 7.4366573983147831e+01
pressure[innode_7] 81.01325
pressure[innode_8] 8.0382684969371681e+01
pressure[source_1] 81.01325
pressure[source_2] 81.01325
pressure[source_3] 81.01325
pressure[sink_1] 4.4470727979014413e+01
pressure[sink_2] 7.4998511363059535e+01
pressure[sink_3] 8.0382684969371681e+01
pressure[sink_4] 5.8288660479935217e+01
pressure[sink_5] 56.6553830711309
pressure[sink_6] 4.6571805589401784e+01
pressure[sink_7] 4.5833008881517685e+01
pressure[sink_8] 5.8698067546818322e+01
pressure[sink_9] 5.3633304514768255e+01
pressure[sink_10] 7.5807523317169611e+01
pressure[sink_11] 7.5655822009566066e+01
pressure[sink_12] 1.0132499999999973e+00
pressure[sink_13] 7.4352905634333553e+01
pressure[sink_14] 7.4377735766026234e+01
pressure[sink_15] 7.4835235947380411e+01
pressure[sink_16] 7.4634172174748386e+01
pressure[sink_17] 5.7873650276485648e+01
pressure[sink_18] 4.9319028745059214e+01
pressure[sink_19] 7.7953272261486873e+01
pressure[sink_20] 61.3602868245024
pressure[sink_21] 2.70561698636478
pressure[sink_22] 4.5534497121369419e+01
pressure[sink_23] 80.2179669577119
pressure[sink_24] 2.9393900377426050e+00
pressure[sink_25] 7.4366573983147831e+01
pressure[sink_26] 6.1748662923493050e+01
pressure[sink_27] 8.0006819269166641e+01
pressure[sink_28] 7.6384337716077653e+01
pressure[sink_29] 7.6679619989694842e+01
interdiction[source_1,sink_3] 0
interdiction[innode_1,sink_16] 0
interdiction[innode_6,sink_13] 0
interdiction[sink_13,sink_14] 0
interdiction[sink_14,sink_10] 0
interdiction[sink_25,sink_26] 0
interdiction[sink_26,sink_9] 0
interdiction[sink_9,sink_18] 0
interdiction[sink_26,sink_4] 0
interdiction[sink_4,sink_20] 1
interdiction[sink_18,sink_6] 0
interdiction[sink_25,innode_8] 0
interdiction[sink_6,sink_7] 0
interdiction[sink_6,sink_22] 0
interdiction[sink_7,sink_24] 0
interdiction[sink_22,sink_1] 0
interdiction[sink_24,sink_21] 0
interdiction[sink_21,sink_12] 0
interdiction[sink_7,sink_5] 1
interdiction[sink_5,sink_17] 0
interdiction[sink_17,sink_4] 0
interdiction[sink_17,sink_8] 0
interdiction[sink_3,sink_23] 0
interdiction[sink_8,sink_20] 0
interdiction[sink_25,sink_20] 0
interdiction[sink_25,sink_15] 0
interdiction[sink_15,sink_29] 0
interdiction[sink_29,sink_28] 0
interdiction[sink_29,sink_2] 0
interdiction[sink_2,sink_15] 0
interdiction[sink_29,innode_7] 0
interdiction[innode_4,sink_19] 1
interdiction[sink_19,innode_3] 0
interdiction[innode_4,innode_5] 0
interdiction[sink_27,innode_5] 0
interdiction[sink_27,sink_19] 0
interdiction[sink_10,sink_11] 0
interdiction[sink_10,innode_2] 0
interdiction[sink_10,innode_3] 0
interdiction[innode_6,sink_25] 0
interdiction[sink_11,innode_1] 0
interdiction[sink_19,innode_2] 0
interdiction[source_3,innode_4] 0
interdiction[source_2,innode_7] 0
interdiction[sink_3,innode_8] 0
WCcheckFlow[source_1,sink_3] 39
WCcheckFlow[innode_1,sink_16] 1
WCcheckFlow[innode_6,sink_13] 13
WCcheckFlow[sink_13,sink_14] 12
WCcheckFlow[sink_14,sink_10] 11
WCcheckFlow[sink_25,sink_26] 15
WCcheckFlow[sink_26,sink_9] 9
WCcheckFlow[sink_9,sink_18] 8
WCcheckFlow[sink_26,sink_4] 5
WCcheckFlow[sink_4,sink_20] 0
WCcheckFlow[sink_18,sink_6] 7
WCcheckFlow[sink_25,innode_8] -36
WCcheckFlow[sink_6,sink_7] 4
WCcheckFlow[sink_6,sink_22] 2
WCcheckFlow[sink_7,sink_24] 3
WCcheckFlow[sink_22,sink_1] 1
WCcheckFlow[sink_24,sink_21] 2
WCcheckFlow[sink_21,sink_12] 1
WCcheckFlow[sink_7,sink_5] 0
WCcheckFlow[sink_5,sink_17] -1
WCcheckFlow[sink_17,sink_4] -4
WCcheckFlow[sink_17,sink_8] 2
WCcheckFlow[sink_3,sink_23] 1
WCcheckFlow[sink_8,sink_20] 1
WCcheckFlow[sink_25,sink_20] 0
WCcheckFlow[sink_25,sink_15] 6
WCcheckFlow[sink_15,sink_29] 5
WCcheckFlow[sink_29,sink_28] 1
WCcheckFlow[sink_29,sink_2] 1
WCcheckFlow[sink_2,sink_15] 0
WCcheckFlow[sink_29,innode_7] 2
WCcheckFlow[innode_4,sink_19] 0
WCcheckFlow[sink_19,innode_3] -5
WCcheckFlow[innode_4,innode_5] -2
WCcheckFlow[sink_27,innode_5] 3
WCcheckFlow[sink_27,sink_19] -4
WCcheckFlow[sink_10,sink_11] 3
WCcheckFlow[sink_10,innode_2] 1
WCcheckFlow[sink_10,innode_3] 6
WCcheckFlow[innode_6,sink_25] -14
WCcheckFlow[sink_11,innode_1] 2
WCcheckFlow[sink_19,innode_2] 0
WCcheckFlow[source_3,innode_4] -1
WCcheckFlow[source_2,innode_7] -1
WCcheckFlow[sink_3,innode_8] 37
